/* Objective function */
min: 2y1 + y2 + y3 + 3y4 + y5;

/* Variable bounds */
h1: x11 + x12 + x13 = 17;
h2: x21 + x22 = 17;
h3: x31 + x32 = 12;
x11 <= 17 u11;
x12 <= 17 u12;
x13 <= 17 u13;
x21 <= 17 u21;
x22 <= 17 u22;
x31 <= 12 u31;
x32 <= 12 u32;
6 u11 <= x11;
6 u12 <= x12;
6 u13 <= x13;
6 u21 <= x21;
6 u22 <= x22;
6 u31 <= x31;
6 u32 <= x32;
y1 = x12 + x13 + x31;
y2 = x11 + x32;
y3 = x13 + x22 + x32;
y4 = x11 + x13 + x22;
y5 = x12 + x21;
c1: x12 + x13 + x31 <= 20;
c2: x11 + x32 <= 20;
c3: x13 + x22 + x32 <= 20;
c4: x11 + x13 + x22 <= 20;
c5: x12 + x21 <= 15;
bin u11,u12,u13,u21,u22,u31,u32;